--Link1--
%chk=molecule
#HF/6-31G* SCF=tight Test Pop=MK iop(6/33=2) iop(6/42=6) opt
# iop(6/50=1)

remark line goes here

0   1
    N   -1.6600000000        1.5590000000        0.9010000000     
    C   -1.6460000000        0.1920000000        0.3640000000     
    C   -0.3740000000       -0.0200000000       -0.4600000000     
    C   -2.8720000000       -0.0190000000       -0.5270000000     
    C   -4.1410000000        0.0690000000        0.3220000000     
    C   -5.3690000000       -0.0160000000       -0.5860000000     
    C   -4.1660000000       -1.0870000000        1.3240000000     
    O   -0.3610000000       -1.3500000000       -0.9830000000     
    O   -0.3450000000        0.9160000000       -1.5390000000     
    N    0.8030000000        0.1820000000        0.3960000000     
    C    2.0450000000       -0.0130000000       -0.3630000000     
    C    2.6550000000       -1.3410000000        0.0040000000     
    O    2.1100000000       -2.0520000000        0.8150000000     
    C    3.0290000000        1.1100000000       -0.0290000000     
    O    3.3000000000        1.1040000000        1.3740000000     
    C    2.4200000000        2.4570000000       -0.4240000000     
    H   -0.8960000000        1.7030000000        1.5430000000     
    H   -1.6400000000        2.2400000000        0.1560000000     
    H   -1.6680000000       -0.5220000000        1.1870000000     
    H   -2.8970000000        0.7510000000       -1.2990000000     
    H   -2.8160000000       -1.0010000000       -0.9960000000     
    H   -4.1530000000        1.0170000000        0.8600000000     
    H   -5.3580000000       -0.9640000000       -1.1250000000     
    H   -6.2740000000        0.0470000000        0.0190000000     
    H   -5.3520000000        0.8070000000       -1.3000000000     
    H   -3.2910000000       -1.0260000000        1.9710000000     
    H   -5.0700000000       -1.0240000000        1.9290000000     
    H   -4.1540000000       -2.0340000000        0.7850000000     
    H   -0.3790000000       -2.0390000000       -0.3040000000     
    H   -0.3520000000        1.8420000000       -1.2580000000     
    H    0.7830000000        1.0940000000        0.8280000000     
    H    1.8250000000        0.0030000000       -1.4310000000     
    O    3.8030000000       -1.7340000000       -0.5700000000     
    H    3.9580000000        0.9560000000       -0.5780000000     
    H    3.9180000000        1.7910000000        1.6590000000     
    H    3.1590000000        3.2450000000       -0.2830000000     
    H    2.1180000000        2.4250000000       -1.4710000000     
    H    1.5490000000        2.6590000000        0.1990000000     
    H    4.1550000000       -2.5940000000       -0.3020000000     

LNT.gesp

LNT.gesp


