--Link1--
%chk=molecule
#HF/6-31G* SCF=tight Test Pop=MK iop(6/33=2) iop(6/42=6) opt
# iop(6/50=1)

remark line goes here

0   1
    N   -4.6800000000        1.3630000000        0.2250000000     
    C   -4.7370000000        0.0990000000       -0.0910000000     
    N   -5.9400000000       -0.4680000000       -0.4400000000     
    N   -7.0790000000        0.3350000000       -0.5790000000     
    O   -6.9720000000        1.4810000000       -0.9780000000     
    O   -8.1770000000       -0.1120000000       -0.3000000000     
    N   -3.5950000000       -0.6650000000       -0.0770000000     
    C   -2.3130000000       -0.0610000000        0.2940000000     
    C   -1.2110000000       -1.1200000000        0.2300000000     
    C    0.1270000000       -0.4890000000        0.6170000000     
    C    1.2290000000       -1.5490000000        0.5530000000     
    N    0.9770000000       -2.5790000000        1.5690000000     
    C    2.5640000000       -0.9020000000        0.8150000000     
    O    3.0720000000       -0.9810000000        1.9130000000     
    N    3.1950000000       -0.2350000000       -0.1720000000     
    C    4.4930000000        0.3940000000        0.0820000000     
    C    4.2810000000        1.7640000000        0.6750000000     
    O    3.1550000000        2.1730000000        0.8660000000     
    N    5.3410000000        2.5320000000        0.9930000000     
    C    5.2640000000        0.5220000000       -1.2330000000     
    C    5.5890000000       -0.8720000000       -1.7720000000     
    N    6.3300000000       -0.7490000000       -3.0350000000     
    H   -5.4960000000        1.8790000000        0.3090000000     
    H   -6.0000000000       -1.4250000000       -0.5890000000     
    H   -3.6370000000       -1.6050000000       -0.3130000000     
    H   -2.3780000000        0.3350000000        1.3080000000     
    H   -2.0790000000        0.7490000000       -0.3970000000     
    H   -1.1460000000       -1.5160000000       -0.7840000000     
    H   -1.4450000000       -1.9300000000        0.9210000000     
    H    0.0620000000       -0.0930000000        1.6310000000     
    H    0.3610000000        0.3210000000       -0.0740000000     
    H    1.2350000000       -2.0070000000       -0.4360000000     
    H    0.9800000000       -2.1120000000        2.4630000000     
    H    0.0360000000       -2.9110000000        1.4180000000     
    H    2.7890000000       -0.1710000000       -1.0510000000     
    H    5.0640000000       -0.2190000000        0.7790000000     
    H    6.2410000000        2.2050000000        0.8400000000     
    H    5.2040000000        3.4140000000        1.3740000000     
    H    6.1910000000        1.0700000000       -1.0590000000     
    H    4.6560000000        1.0600000000       -1.9600000000     
    H    4.6630000000       -1.4190000000       -1.9460000000     
    H    6.1980000000       -1.4100000000       -1.0450000000     
    H    7.2200000000       -0.3320000000       -2.8090000000     
    H    6.5210000000       -1.6880000000       -3.3510000000     

DP1.gesp

DP1.gesp


