--Link1--
%chk=molecule
#HF/6-31G* SCF=tight Test Pop=MK iop(6/33=2) iop(6/42=6) opt
# iop(6/50=1)

remark line goes here

0   1
    C    0.3530000000        0.6770000000       -5.1430000000     
    C   -0.6480000000       -0.4760000000       -5.0630000000     
    C   -0.4300000000        0.4340000000       -3.8520000000     
    N   -1.7200000000       -0.0520000000        1.0190000000     
    C   -0.3160000000        0.3790000000        1.0000000000     
    C    0.3650000000       -0.1550000000       -0.2600000000     
    C   -0.3510000000        0.3890000000       -1.4970000000     
    N    0.3020000000       -0.1230000000       -2.7080000000     
    O    1.7310000000        0.2650000000       -0.2780000000     
    O    0.3060000000       -1.5820000000       -0.2650000000     
    C    0.4010000000       -0.1650000000        2.2370000000     
    C   -0.2800000000        0.3690000000        3.4990000000     
    C    0.4360000000       -0.1750000000        4.7360000000     
    C   -0.2440000000        0.3580000000        5.9970000000     
    H    0.0770000000        1.5430000000       -5.7450000000     
    H    1.4130000000        0.4230000000       -5.1430000000     
    H   -0.2470000000       -1.4880000000       -5.0100000000     
    H   -1.5840000000       -0.3680000000       -5.6110000000     
    H   -1.2220000000        1.1400000000       -3.6040000000     
    H   -1.7130000000       -1.0610000000        1.0150000000     
    H   -2.0990000000        0.2310000000        1.9100000000     
    H   -0.2700000000        1.4680000000        1.0040000000     
    H   -0.3060000000        1.4780000000       -1.4930000000     
    H   -1.3930000000        0.0690000000       -1.4830000000     
    H    1.2270000000        0.2800000000       -2.7310000000     
    H    1.7260000000        1.2320000000       -0.2740000000     
    H   -0.6300000000       -1.8230000000       -0.2530000000     
    H    1.4430000000        0.1550000000        2.2240000000     
    H    0.3560000000       -1.2540000000        2.2340000000     
    H   -1.3220000000        0.0480000000        3.5120000000     
    H   -0.2350000000        1.4580000000        3.5020000000     
    H    1.4780000000        0.1450000000        4.7220000000     
    H    0.3910000000       -1.2640000000        4.7320000000     
    H    0.2660000000       -0.0290000000        6.8780000000     
    H   -0.1990000000        1.4480000000        6.0010000000     
    H   -1.2860000000        0.0380000000        6.0100000000     

M1C.gesp

M1C.gesp


